NAME lp_typeD_4927
OBJSENSE MAX
ROWS
 N  OBJ
 L  c0      
 L  c1      
 G  c2      
 G  c3      
 L  c_key_upper
 G  c_key_lower
 G  _chain_constr_1
 G  _chain_constr_2
 G  _chain_constr_3
 G  _chain_cycle
COLUMNS
    x0        OBJ       5.7938747797773049e-01
    x0        c0        1.2964485538809281e+00
    x0        c1        1.2580682817317417e+00
    x0        c2        1.0759040919657463e+00
    x0        c3        1.2259980406456288e+00
    x0        c_key_upper  1.1583772150207072e+00
    x0        c_key_lower  1.1583772150207072e+00
    x1        OBJ       7.7099931933805366e-01
    x1        c0        1.1696822467552739e+00
    x1        c1        1.1692207884821277e+00
    x1        c2        1.0181551479336441e+00
    x1        c3        1.8776416764280952e+00
    x1        c_key_upper  1.7178403858992914e+00
    x1        c_key_lower  1.7178403858992914e+00
    x2        OBJ       1.3700334824106024e+00
    x2        c0        1.5573860284995944e+00
    x2        c1        1.1808394465656669e+00
    x2        c2        8.8269527008887749e-01
    x2        c3        8.3019461369954761e-01
    x2        c_key_upper  1.9868454412544279e+00
    x2        c_key_lower  1.9868454412544279e+00
    x3        OBJ       1.0074719569648958e+00
    x3        c0        8.8200081914527018e-01
    x3        c1        1.2446396617764903e+00
    x3        c2        6.7732816331760781e-01
    x3        c3        0.64504217997844
    x3        c_key_upper  1.9406042406057378e+00
    x3        c_key_lower  1.9406042406057378e+00
    x4        OBJ       7.4166179466647342e-01
    x4        c0        1.9571541949892670e+00
    x4        c1        1.7275943659982007e+00
    x4        c2        1.1847687566192371e+00
    x4        c3        1.3565864904739722e+00
    x4        c_key_upper  1.5075135243482090e+00
    x4        c_key_lower  1.5075135243482090e+00
    x5        OBJ       1.1838803645016016e+00
    x5        c0        6.6873393893199862e-01
    x5        c1        1.7021751753598535e+00
    x5        c2        1.4125067593895690e+00
    x5        c3        1.8742750448556738e+00
    x5        c_key_upper  1.3315545259050852e+00
    x5        c_key_lower  1.3315545259050852e+00
    _chain_var_0  _chain_constr_1  -1
    _chain_var_0  _chain_cycle  1
    _chain_var_1  _chain_constr_1  1
    _chain_var_1  _chain_constr_2  -1
    _chain_var_2  _chain_constr_2  1
    _chain_var_2  _chain_constr_3  -1
    _chain_var_3  _chain_constr_3  1
    _chain_var_3  _chain_cycle  -1
RHS
    RHS1      c0        4.3181269737612183e+01
    RHS1      c1        3.4998679461947361e+01
    RHS1      c2        6.6468466859221182e+00
    RHS1      c3        1.1371835222754308e+01
    RHS1      c_key_upper  4.8213676665167291e+01
    RHS1      c_key_lower  2.4106838332583646e+01
    RHS1      _chain_constr_1  10
    RHS1      _chain_constr_2  10
    RHS1      _chain_constr_3  10
    RHS1      _chain_cycle  10
BOUNDS
 UP BND1      x0        10
 UP BND1      x1        10
 UP BND1      x2        10
 UP BND1      x3        10
 UP BND1      x4        10
 UP BND1      x5        10
 UP BND1      _chain_var_0  100
 UP BND1      _chain_var_1  100
 UP BND1      _chain_var_2  100
 UP BND1      _chain_var_3  100
ENDATA
